c ---- [ banner ] ------------------------------------------------------------
c
c Kissat SAT Solver
c 
c Copyright (c) 2021-2024 Armin Biere University of Freiburg
c Copyright (c) 2019-2021 Armin Biere Johannes Kepler University Linz
c 
c Version 4.0.1 43f02cf3e992cb44653b35e5cb26f93281552ae0
c gcc (Ubuntu 13.2.0-23ubuntu4) 13.2.0 -W -Wall -O3 -DNDEBUG
c Thu Sep 12 12:27:46 CEST 2024 Linux abryzen9 6.8.0-41-generic x86_64
c
c ---- [ parsing ] -----------------------------------------------------------
c
c opened and reading DIMACS file:
c
c   /data/artifact/AMulet2.0_artifact/exp4/cnf_mfs_64/64_64_U_SP_DT_CK_GenMul_mfs.cnf
c
c parsed 'p cnf 34677 135526' header
c closing input after reading 2637874 bytes (3 MB)
c finished parsing after 0.04 seconds
c
c ---- [ options ] -----------------------------------------------------------
c
c --stable=0                       (different from default '1')
c
c ---- [ solving ] -----------------------------------------------------------
c
c  seconds switched rate     size/glue tier1  binary           remaining
c         MB reductions conflicts size  tier2     irredundant
c          level restarts redundant glue  trail           variables
c
c *  0.04 10 0 0 0  0 0   0   0 0.0 0 0 0 0 0% 27524 108000 34674 100%
c (  0.06 12 0 0 0  0 0   0   0 0.0 0 0 0 0 0% 27524 108000 34674 100%
c .  0.07 12 0 0 0  0 0   0   0 0.0 0 0 0 0 0% 27520 108000 34674 100%
c c  0.17 21 0 0 0  0 0   0   0 0.0 0 0 0 0 0% 34316 94408 31276 90%
c d  0.18 21 0 0 0  0 0   0   0 0.0 0 0 0 0 0% 27520 94408 31276 90%
c =  0.24 21 0 0 0  0 0   0   0 0.0 0 0 0 0 0% 28002 94408 31035 89%
c d  0.25 21 0 0 0  0 0   0   0 0.0 0 0 0 0 0% 27520 94408 31035 89%
c f  0.35 19 0 0 0  0 0   0   0 0.0 0 0 0 0 0% 30374 89834 32751 94%
c e  0.50 28 0 0 0  0 0   0   0 0.0 0 0 0 0 0% 8427 103809 21658 62%
c )  0.50 28 0 0 0  0 0   0   0 0.0 0 0 0 0 0% 8427 103809 21658 62%
c {  0.52 28 0 0 0  0 0   0   0 0.0 0 0 2 6 0% 8427 103809 21658 62%
c -  0.81 28 206 0 1 139 27 1001 755 3.9 34 9 4 15 28% 8437 103809 21658 62%
c -  1.03 28 235 0 2 187 25 2001 1453 3.8 30 8 4 15 29% 8447 103809 21658 62%
c c  1.36 23 217 0 2 250 25 2502 1919 4.4 35 8 4 14 32% 8455 103796 21655 62%
c d  1.36 23 217 0 2 250 25 2502 1919 4.4 35 8 4 14 32% 8449 103796 21655 62%
c u  1.39 23 217 0 2 250 25 2502 1487 4.4 35 8 4 14 32% 8452 103796 21655 62%
c v  1.42 23 217 0 2 250 25 2502 1388 4.4 35 8 4 14 32% 8452 103796 21655 62%
c w  1.44 23 217 0 2 250 25 2502 1388 4.4 35 8 4 14 32% 8452 103796 21655 62%
c =  1.55 23 217 0 2 250 25 2502 1388 4.4 35 8 4 14 32% 8882 103796 21440 62%
c d  1.55 23 217 0 2 250 25 2502 1387 4.4 35 8 4 14 32% 8448 103796 21440 62%
c
c  seconds   switched   rate       size/glue tier1     binary          remaining
c         MB  reductions conflicts       size  tier2      irredundant
c           level restarts    redundant    glue    trail          variables
c
c f  1.61 26 217 0 2 250 25 2502 1387 4.4 35 8 4 14 32% 9194 102388 22101 64%
c u  1.65 26 217 0 2 250 25 2502 1331 4.4 35 8 4 14 32% 9194 102388 22101 64%
c v  1.69 26 217 0 2 250 25 2502 1234 4.4 35 8 4 14 32% 9194 102388 22101 64%
c w  1.73 26 217 0 2 250 25 2502 1234 4.4 35 8 4 14 32% 9194 102388 22101 64%
c =  1.82 26 217 0 2 250 25 2502 1234 4.4 35 8 4 14 32% 9658 102388 21869 63%
c d  1.83 26 217 0 2 250 25 2502 1234 4.4 35 8 4 14 32% 9139 102388 21869 63%
c f  1.89 26 217 0 2 250 25 2502 1234 4.4 35 8 4 14 32% 9519 101818 22059 64%
c -  2.16 26 240 0 3 298 25 3415 1689 4.6 35 8 3 14 32% 9544 101818 22059 64%
c -  2.49 26 317 0 4 422 26 5147 2706 4.4 32 7 3 13 30% 9600 101818 22059 64%
c -  2.97 26 339 0 5 594 27 7147 3836 4.3 29 7 3 12 28% 9661 101818 22059 64%
c c  3.35 26 328 0 5 722 29 7707 4322 4.3 30 7 3 12 28% 9678 101688 22022 64%
c d  3.36 26 328 0 5 722 29 7707 4307 4.3 30 7 3 12 28% 9604 101688 22022 64%
c u  3.40 26 328 0 5 722 29 7707 3314 4.3 30 7 3 12 28% 9616 101688 22022 64%
c v  3.44 26 328 0 5 722 29 7707 2990 4.3 30 7 3 12 28% 9616 101688 22022 64%
c w  3.48 26 328 0 5 722 29 7707 2990 4.3 30 7 3 12 28% 9616 101688 22022 64%
c x  3.51 26 328 0 5 722 29 7707 2990 4.3 30 7 3 12 28% 9616 101057 22022 64%
c =  3.65 26 328 0 5 722 29 7707 2990 4.3 30 7 3 12 28% 10422 101057 21619 62%
c d  3.66 26 328 0 5 722 29 7707 2976 4.3 30 7 3 12 28% 9493 101057 21616 62%
c t  3.68 26 328 0 5 722 29 7707 2976 4.3 30 7 3 12 28% 9492 101057 21616 62%
c f  3.72 26 328 0 5 722 29 7707 2976 4.3 30 7 3 12 28% 11378 98228 22559 65%
c
c  seconds   switched   rate       size/glue tier1     binary          remaining
c         MB  reductions conflicts       size  tier2       irredundant
c           level restarts    redundant    glue    trail          variables
c
c u  3.83 26 328 0 5 722 29 7707 2767 4.3 30 7 3 12 28% 11381 98228 22559 65%
c v  3.86 26 328 0 5 722 29 7707 2692 4.3 30 7 3 12 28% 11381 98228 22559 65%
c w  3.92 26 328 0 5 722 29 7707 2689 4.3 30 7 3 12 28% 11381 98228 22559 65%
c x  3.95 26 328 0 5 722 29 7707 2689 4.3 30 7 3 12 28% 11381 94698 22559 65%
c =  4.09 26 328 0 5 722 29 7707 2689 4.3 30 7 3 12 28% 11961 94696 22269 64%
c d  4.10 26 328 0 5 722 29 7707 2684 4.3 30 7 3 12 28% 11294 94696 22269 64%
c t  4.12 26 328 0 5 722 29 7707 2684 4.3 30 7 3 12 28% 11265 94696 22269 64%
c f  4.18 26 328 0 5 722 29 7707 2684 4.3 30 7 3 12 28% 11427 94453 22350 64%
c -  4.59 26 317 0 6 848 28 9383 3528 4.2 29 7 2 11 28% 11476 94453 22350 64%
c o  4.83 26 308 0 6 932 29 10022 4108 4.3 30 7 2 11 29% 11490 94453 22350 64%
c -  5.37 26 297 0 7 1107 29 11833 4987 4.3 29 7 2 10 29% 11516 94453 22350 64%
c s  5.65 26 296 0 7 1183 30 12505 5592 4.4 31 7 2 10 30% 11531 92690 22350 64%
c e  5.78 26 296 0 7 1183 30 12505 5592 4.4 31 7 2 10 30% 9937 93645 21064 61%
c s  5.79 26 296 0 7 1183 30 12505 5592 4.4 31 7 2 10 30% 9938 92651 21064 61%
c e  5.81 26 296 0 7 1183 30 12505 5592 4.4 31 7 2 10 30% 9933 92656 21061 61%
c ^  5.81 26 296 0 7 1183 30 12505 5592 4.4 31 7 2 10 30% 9933 92656 21061 61%
c -  6.62 26 307 0 8 1412 31 14479 5921 4.7 34 7 2 10 30% 9957 92656 21061 61%
c d  6.95 26 319 0 8 1507 31 15783 7125 4.6 33 7 2 10 30% 9778 92656 20936 60%
c u  6.99 26 319 0 8 1507 31 15783 5787 4.6 33 7 2 10 30% 9787 92656 20936 60%
c v  7.05 26 319 0 8 1507 31 15783 4965 4.6 33 7 2 10 30% 9787 92656 20936 60%
c
c  seconds   switched    rate        size/glue tier1     binary         remaining
c         MB  reductions   conflicts       size  tier2      irredundant
c           level  restarts     redundant    glue    trail         variables
c
c w  7.15 26 319 0 8 1507 31 15783 4959 4.6 33 7 2 10 30% 9787 92656 20936 60%
c x  7.20 26 319 0 8 1507 31 15783 4959 4.6 33 7 2 10 30% 9787 90417 20936 60%
c =  7.46 26 319 0 8 1507 31 15783 4959 4.6 33 7 2 10 30% 12219 90417 19720 57%
c d  7.47 26 319 0 8 1507 31 15783 4819 4.6 33 7 2 10 30% 9275 90417 19720 57%
c t  7.49 26 319 0 8 1507 31 15783 4819 4.6 33 7 2 10 30% 9263 90417 19720 57%
c f  7.55 26 319 0 8 1507 31 15783 4819 4.6 33 7 2 10 30% 9264 90413 19721 57%
c c  7.63 26 319 0 8 1507 31 15783 4819 4.6 33 7 2 10 30% 9268 90405 19719 57%
c d  7.63 26 319 0 8 1507 31 15783 4819 4.6 33 7 2 10 30% 9264 90405 19719 57%
c u  7.67 26 319 0 8 1507 31 15783 4431 4.6 33 7 2 10 30% 9264 90405 19719 57%
c v  7.71 26 319 0 8 1507 31 15783 4281 4.6 33 7 2 10 30% 9264 90405 19719 57%
c w  7.81 26 319 0 8 1507 31 15783 4268 4.6 33 7 2 10 30% 9264 90405 19719 57%
c x  7.87 26 319 0 8 1507 31 15783 4268 4.6 33 7 2 10 30% 9265 88479 19719 57%
c =  8.12 26 319 0 8 1507 31 15783 4268 4.6 33 7 2 10 30% 11185 88479 18759 54%
c d  8.13 26 319 0 8 1507 31 15783 4241 4.6 33 7 2 10 30% 8999 88479 18759 54%
c t  8.15 26 319 0 8 1507 31 15783 4241 4.6 33 7 2 10 30% 8998 88479 18759 54%
c -  8.43 26 323 0 9 1585 30 17310 4853 4.5 32 7 2 9 29% 9023 88479 18759 54%
c o  9.12 26 304 0 9 1815 30 20089 7311 4.4 32 7 2 9 28% 9076 88479 18759 54%
c -  9.22 26 302 0 10 1860 30 20310 6647 4.5 32 7 2 8 28% 9078 88479 18759 54%
c -  9.84 26 303 0 11 2036 29 23472 8412 4.4 31 7 2 8 28% 9120 88479 18759 54%
c s 10.10 26 301 0 11 2112 29 25007 9644 4.3 30 7 2 8 28% 9157 86622 18759 54%
c
c  seconds   switched     rate        size/glue tier1    binary         remaining
c         MB   reductions   conflicts       size  tier2     irredundant
c           level   restarts     redundant    glue   trail         variables
c
c e 10.24 26 301 0 11 2112 29 25007 9644 4.3 30 7 2 8 28% 8115 89647 15936 46%
c s 10.27 26 301 0 11 2112 29 25007 9644 4.3 30 7 2 8 28% 8117 84798 15936 46%
c e 10.32 26 301 0 11 2112 29 25007 9644 4.3 30 7 2 8 28% 8110 84811 15926 46%
c ^ 10.32 26 301 0 11 2112 29 25007 9644 4.3 30 7 2 8 28% 8110 84811 15926 46%
c - 10.65 26 288 0 12 2206 28 26788 7902 4.1 29 7 2 8 28% 8132 84811 15926 46%
c d 10.70 26 287 0 12 2214 28 26909 8006 4.1 29 7 2 8 28% 8043 84811 15870 46%
c u 10.75 26 287 0 12 2214 28 26909 6560 4.1 29 7 2 8 28% 8051 84811 15870 46%
c v 10.79 26 287 0 12 2214 28 26909 5619 4.1 29 7 2 8 28% 8051 84811 15870 46%
c w 10.81 26 287 0 12 2214 28 26909 5613 4.1 29 7 2 8 28% 8051 84811 15870 46%
c x 10.89 26 287 0 12 2214 28 26909 5613 4.1 29 7 2 8 28% 8051 82498 15870 46%
c = 11.11 26 287 0 12 2214 28 26909 5613 4.1 29 7 2 8 28% 10391 82498 14700 42%
c d 11.12 26 287 0 12 2214 28 26909 5295 4.1 29 7 2 8 28% 7984 82498 14700 42%
c t 11.14 26 287 0 12 2214 28 26909 5295 4.1 29 7 2 8 28% 7974 82498 14700 42%
c f 11.22 26 287 0 12 2214 28 26909 5295 4.1 29 7 2 8 28% 7976 82454 14712 42%
c u 11.26 26 287 0 12 2214 28 26909 4859 4.1 29 7 2 8 28% 7976 82454 14712 42%
c v 11.29 26 287 0 12 2214 28 26909 4726 4.1 29 7 2 8 28% 7976 82454 14712 42%
c w 11.30 26 287 0 12 2214 28 26909 4725 4.1 29 7 2 8 28% 7976 82454 14712 42%
c x 11.40 26 287 0 12 2214 28 26909 4725 4.1 29 7 2 8 28% 7976 72790 14712 42%
c = 11.63 26 287 0 12 2214 28 26909 4725 4.1 29 7 2 8 28% 8406 72784 14497 42%
c d 11.64 26 287 0 12 2214 28 26909 4716 4.1 29 7 2 8 28% 7974 72784 14497 42%
c
c  seconds   switched     rate        size/glue tier1    binary         remaining
c         MB   reductions   conflicts       size  tier2     irredundant
c           level   restarts     redundant    glue   trail         variables
c
c - 12.13 26 265 0 13 2336 26 30252 6730 3.9 27 7 2 8 28% 8007 72783 14497 42%
c - 12.72 26 247 0 14 2548 25 33857 8838 3.7 25 7 2 8 28% 8037 72783 14497 42%
c - 13.35 28 235 0 15 2811 24 37598 10540 3.6 24 7 2 8 28% 8077 72783 14497 42%
c o 13.67 28 232 0 15 2916 23 40090 12668 3.5 23 7 2 8 27% 8113 72783 14497 42%
c c 14.08 28 231 0 15 3068 23 41258 13700 3.5 24 7 2 8 27% 8199 72352 14405 42%
c d 14.09 28 231 0 15 3068 23 41258 13519 3.5 24 7 2 8 27% 7996 72352 14393 42%
c u 14.16 28 231 0 15 3068 23 41258 11669 3.5 24 7 2 8 27% 8013 72352 14393 42%
c v 14.22 28 231 0 15 3068 23 41258 10858 3.5 24 7 2 8 27% 8013 72352 14393 42%
c w 14.26 28 231 0 15 3068 23 41258 10858 3.5 24 7 2 8 27% 8013 72352 14393 42%
c x 14.32 28 231 0 15 3068 23 41258 10858 3.5 24 7 2 8 27% 8013 71336 14393 42%
c = 14.57 28 231 0 15 3068 23 41258 10858 3.5 24 7 2 8 27% 8817 71336 13991 40%
c d 14.57 28 231 0 15 3068 23 41258 10606 3.5 24 7 2 8 27% 7951 71336 13988 40%
c t 14.59 28 231 0 15 3068 23 41258 10606 3.5 24 7 2 8 27% 7944 71336 13988 40%
c u 14.67 28 231 0 15 3068 23 41258 10127 3.5 24 7 2 8 27% 7945 71336 13988 40%
c v 14.74 28 231 0 15 3068 23 41258 9242 3.5 24 7 2 8 27% 7948 71336 13988 40%
c w 14.80 28 231 0 15 3068 23 41258 9235 3.5 24 7 2 8 27% 7948 71336 13988 40%
c x 14.86 28 231 0 15 3068 23 41258 9235 3.5 24 7 2 8 27% 7948 69240 13988 40%
c = 15.09 28 231 0 15 3068 23 41258 9235 3.5 24 7 2 8 27% 8528 69224 13697 39%
c d 15.10 28 231 0 15 3068 23 41258 9088 3.5 24 7 2 8 27% 7912 69224 13697 39%
c - 15.16 28 232 0 16 3068 23 41473 8096 3.5 24 7 2 8 27% 7912 69224 13697 39%
c
c  seconds   switched     rate         size/glue tier1    binary         remaining
c         MB   reductions   conflicts        size  tier2     irredundant
c           level   restarts      redundant    glue   trail         variables
c
c - 15.79 28 226 0 17 3375 23 45473 10341 3.4 23 7 2 7 27% 7921 69222 13697 39%
c - 16.44 28 221 0 18 3662 22 49598 12550 3.3 22 7 2 7 27% 7947 69220 13697 39%
c s 17.14 28 219 0 18 4025 23 52111 14802 3.4 23 7 2 7 27% 7963 66823 13697 39%
c e 17.25 28 219 0 18 4025 23 52111 14802 3.4 23 7 2 7 27% 6955 68770 12778 37%
c s 17.26 28 219 0 18 4025 23 52111 14802 3.4 23 7 2 7 27% 6955 68304 12778 37%
c e 17.27 28 219 0 18 4025 23 52111 14802 3.4 23 7 2 7 27% 6953 68325 12760 37%
c ^ 17.27 28 219 0 18 4025 23 52111 14802 3.4 23 7 2 7 27% 6953 68325 12760 37%
c - 17.57 28 215 0 19 4147 23 53840 12871 3.3 22 7 2 7 27% 6969 68325 12760 37%
c - 18.25 28 209 0 20 4419 22 58198 14796 3.2 22 7 2 7 27% 6994 68323 12760 37%
c c 18.43 28 208 0 20 4473 22 58924 15463 3.2 22 7 2 7 27% 7055 68032 12716 37%
c d 18.43 28 208 0 20 4473 22 58924 15353 3.2 22 7 2 7 27% 6967 68032 12716 37%
c u 18.51 28 208 0 20 4473 22 58924 12805 3.2 22 7 2 7 27% 6984 68032 12716 37%
c v 18.58 28 208 0 20 4473 22 58924 11219 3.2 22 7 2 7 27% 6988 68032 12716 37%
c w 18.63 28 208 0 20 4473 22 58924 11186 3.2 22 7 2 7 27% 6988 68032 12716 37%
c x 18.72 28 208 0 20 4473 22 58924 11186 3.2 22 7 2 7 27% 6988 67151 12716 37%
c d 19.04 28 208 0 20 4473 22 58924 11172 3.2 22 7 2 7 27% 6976 67151 12710 37%
c f 19.10 28 208 0 20 4473 22 58924 11172 3.2 22 7 2 7 27% 6984 67113 12716 37%
c c 19.15 28 208 0 20 4473 22 58924 11165 3.2 22 7 2 7 27% 6986 67105 12715 37%
c d 19.16 28 208 0 20 4473 22 58924 11165 3.2 22 7 2 7 27% 6984 67105 12715 37%
c u 19.22 28 208 0 20 4473 22 58924 10736 3.2 22 7 2 7 27% 6989 67105 12715 37%
c
c  seconds   switched     rate         size/glue tier1    binary         remaining
c         MB   reductions   conflicts        size  tier2     irredundant
c           level   restarts      redundant    glue   trail         variables
c
c v 19.27 28 208 0 20 4473 22 58924 10496 3.2 22 7 2 7 27% 6989 67105 12715 37%
c w 19.31 28 208 0 20 4473 22 58924 10479 3.2 22 7 2 7 27% 6989 67105 12715 37%
c x 19.41 28 208 0 20 4473 22 58924 10477 3.2 22 7 2 7 27% 6989 66847 12715 37%
c d 19.42 28 208 0 20 4473 22 58924 10476 3.2 22 7 2 7 27% 6987 66847 12714 37%
c - 19.91 28 200 0 21 4646 21 62670 12212 3.1 21 7 2 7 27% 7025 66843 12714 37%
c - 20.51 28 193 0 22 4920 21 67253 14351 3.0 20 7 2 7 26% 7085 66843 12714 37%
c o 21.02 28 191 0 22 5201 21 70169 16829 3.0 20 7 2 7 26% 7133 66843 12714 37%
c - 21.23 28 189 0 23 5324 21 71944 16245 3.0 20 7 2 6 26% 7164 66843 12714 37%
c - 22.14 28 188 0 24 5788 21 76739 17938 2.9 20 7 2 6 26% 7212 66843 12714 37%
c d 23.01 28 184 0 24 6185 21 80041 20398 2.9 20 7 2 6 26% 7030 66843 12611 36%
c u 23.11 28 184 0 24 6185 21 80041 17181 2.9 20 7 2 6 26% 7081 66843 12611 36%
c v 23.20 28 184 0 24 6185 21 80041 15817 2.9 20 7 2 6 26% 7083 66843 12611 36%
c w 23.26 28 184 0 24 6185 21 80041 15816 2.9 20 7 2 6 26% 7083 66843 12611 36%
c x 23.33 28 184 0 24 6185 21 80041 15810 2.9 20 7 2 6 26% 7083 66631 12611 36%
c = 23.58 28 184 0 24 6185 21 80041 15810 2.9 20 7 2 6 26% 7123 66631 12591 36%
c d 23.59 28 184 0 24 6185 21 80041 15688 2.9 20 7 2 6 26% 7026 66631 12567 36%
c t 23.61 28 184 0 24 6185 21 80041 15688 2.9 20 7 2 6 26% 7020 66631 12567 36%
c f 23.62 28 184 0 24 6185 21 80041 15688 2.9 20 7 2 6 26% 7024 66617 12569 36%
c c 23.68 28 184 0 24 6185 21 80041 15608 2.9 20 7 2 6 26% 7069 66402 12543 36%
c d 23.68 28 184 0 24 6185 21 80041 15608 2.9 20 7 2 6 26% 7017 66402 12543 36%
c
c  seconds   switched     rate         size/glue tier1    binary         remaining
c         MB   reductions   conflicts        size  tier2     irredundant
c           level   restarts      redundant    glue   trail         variables
c
c u 23.76 28 184 0 24 6185 21 80041 15024 2.9 20 7 2 6 26% 7024 66402 12543 36%
c v 23.82 28 184 0 24 6185 21 80041 14103 2.9 20 7 2 6 26% 7027 66402 12543 36%
c w 23.93 28 184 0 24 6185 21 80041 14092 2.9 20 7 2 6 26% 7027 66402 12543 36%
c x 24.04 28 184 0 24 6185 21 80041 14088 2.9 20 7 2 6 26% 7027 65343 12543 36%
c = 24.41 28 184 0 24 6185 21 80041 14088 2.9 20 7 2 6 26% 7335 65343 12389 36%
c d 24.42 28 184 0 24 6185 21 80041 13814 2.9 20 7 2 6 26% 6973 65343 12389 36%
c - 24.72 28 183 0 25 6306 21 81637 13511 2.9 20 7 2 6 26% 6977 65343 12389 36%
c - 25.66 28 180 0 26 6804 21 86637 16016 2.9 20 7 2 6 26% 7027 65343 12389 36%
c - 26.80 28 176 0 27 7390 21 91736 18410 2.9 20 7 2 6 26% 7057 65343 12389 36%
c s 27.21 28 174 0 27 7606 21 95880 21763 2.9 19 7 2 6 26% 7107 64722 12389 36%
c e 27.32 28 174 0 27 7606 21 95880 21763 2.9 19 7 2 6 26% 4769 70773 11110 32%
c 2 27.32 28 174 0 27 7606 21 95880 21763 2.9 19 7 2 6 26% 4768 70773 11110 32%
c s 27.34 28 174 0 27 7606 21 95880 21763 2.9 19 7 2 6 26% 4768 70492 11110 32%
c e 27.36 28 174 0 27 7606 21 95880 21763 2.9 19 7 2 6 26% 4766 70544 11086 32%
c ^ 27.36 28 174 0 27 7606 21 95880 21763 2.9 19 7 2 6 26% 4766 70544 11086 32%
c - 27.73 28 174 0 28 7809 21 96933 16224 2.9 19 7 2 6 26% 4769 70544 11086 32%
c - 29.04 28 172 0 29 8545 21 102224 18657 2.9 20 7 2 5 26% 4796 70540 11086 32%
c i 29.17 28 170 0 29 8616 21 103493 19572 2.9 20 7 2 5 26% 4833 70540 11085 32%
c c 29.41 28 170 0 29 8798 21 104729 20729 2.8 20 7 2 5 26% 4898 70109 11019 32%
c d 29.42 28 170 0 29 8798 21 104729 20375 2.8 20 7 2 5 26% 4770 70105 11019 32%
c
c  seconds   switched     rate          size/glue tier1    binary         remaining
c         MB   reductions   conflicts         size  tier2     irredundant
c           level   restarts       redundant    glue   trail         variables
c
c d 29.42 28 170 0 29 8798 21 104729 20369 2.8 20 7 2 5 26% 4766 70105 11017 32%
c u 29.47 28 170 0 29 8798 21 104729 16950 2.8 20 7 2 5 26% 4784 70105 11017 32%
c v 29.52 28 170 0 29 8798 21 104729 15058 2.8 20 7 2 5 26% 4786 70105 11017 32%
c w 29.60 28 170 0 29 8798 21 104729 14972 2.8 20 7 2 5 26% 4786 70105 11017 32%
c x 29.66 28 170 0 29 8798 21 104729 14972 2.8 20 7 2 5 26% 4786 69974 11017 32%
c = 30.01 28 170 0 29 8798 21 104729 14972 2.8 20 7 2 5 26% 4954 69954 10931 32%
c d 30.02 28 170 0 29 8798 21 104729 14843 2.8 20 7 2 5 26% 4753 69954 10931 32%
c t 30.02 28 170 0 29 8798 21 104729 14843 2.8 20 7 2 5 26% 4744 69954 10931 32%
c u 30.14 28 170 0 29 8798 21 104729 13983 2.8 20 7 2 5 26% 4746 69954 10931 32%
c v 30.16 28 170 0 29 8798 21 104729 13634 2.8 20 7 2 5 26% 4746 69954 10931 32%
c w 30.26 28 170 0 29 8798 21 104729 13327 2.8 20 7 2 5 26% 4746 69954 10931 32%
c - 31.03 28 168 0 30 9106 21 107609 14465 2.8 19 7 2 5 26% 4748 69954 10931 32%
c o 31.35 28 166 0 30 9347 21 110424 17021 2.8 19 7 2 5 26% 4754 69954 10931 32%
c - 31.73 28 164 0 31 9719 21 113086 15887 2.8 19 7 1 5 27% 4756 69954 10931 32%
c i 32.25 28 163 0 31 10195 21 116433 18950 2.8 20 7 1 5 27% 4766 69954 10930 32%
c - 32.59 28 162 0 32 10442 21 118653 17686 2.8 20 7 1 5 27% 4765 69954 10930 32%
c - 33.56 28 161 0 33 11230 22 124309 19089 2.8 21 7 1 5 27% 4786 69954 10930 32%
c - 34.33 28 158 0 34 11832 22 130054 20398 2.8 21 7 1 5 27% 4812 69954 10930 32%
c d 34.98 28 158 0 34 12337 22 133036 23118 2.8 22 8 1 5 28% 4776 69946 10908 31%
c d 34.98 28 158 0 34 12337 22 133036 23118 2.8 22 8 1 5 28% 4772 69946 10906 31%
c
c  seconds   switched      rate          size/glue tier1    binary         remaining
c         MB   reductions    conflicts         size  tier2     irredundant
c           level   restarts        redundant    glue   trail         variables
c
c u 35.02 28 158 0 34 12337 22 133036 20818 2.8 22 8 1 5 28% 4785 69946 10906 31%
c v 35.09 28 158 0 34 12337 22 133036 17541 2.8 22 8 1 5 28% 4788 69946 10906 31%
c w 35.25 28 158 0 34 12337 22 133036 17525 2.8 22 8 1 5 28% 4788 69946 10906 31%
c x 35.33 28 158 0 34 12337 22 133036 17525 2.8 22 8 1 5 28% 4788 69927 10906 31%
c d 35.33 28 158 0 34 12337 22 133036 17523 2.8 22 8 1 5 28% 4782 69927 10903 31%
c t 35.34 28 158 0 34 12337 22 133036 17523 2.8 22 8 1 5 28% 4775 69927 10903 31%
c c 35.37 28 158 0 34 12337 22 133036 17523 2.8 22 8 1 5 28% 4788 69849 10895 31%
c d 35.38 28 158 0 34 12337 22 133036 17509 2.8 22 8 1 5 28% 4772 69849 10895 31%
c u 35.42 28 158 0 34 12337 22 133036 16918 2.8 22 8 1 5 28% 4775 69849 10895 31%
c v 35.46 28 158 0 34 12337 22 133036 16327 2.8 22 8 1 5 28% 4776 69849 10895 31%
c w 35.77 28 158 0 34 12337 22 133036 15795 2.8 22 8 1 5 28% 4776 69849 10895 31%
c t 36.29 28 158 0 34 12337 22 133036 15795 2.8 22 8 1 5 28% 4773 69849 10895 31%
c - 36.67 28 156 0 35 12593 22 135886 15585 2.8 22 8 1 5 28% 4782 69849 10895 31%
c i 36.84 28 155 0 35 12712 22 137658 17165 2.8 22 8 1 5 28% 4808 69849 10893 31%
c - 37.35 28 153 0 36 13100 22 141802 17846 2.8 21 8 1 5 28% 4825 69849 10893 31%
c - 38.16 28 150 0 37 13626 21 147803 19639 2.7 21 8 1 5 28% 4841 69849 10893 31%
c i 38.57 28 147 0 37 13936 21 151082 22565 2.7 21 8 1 5 27% 4861 69849 10892 31%
c i 38.92 28 146 0 37 14216 21 153856 25072 2.7 21 8 1 5 27% 4875 69849 10891 31%
c - 38.93 28 145 0 38 14219 21 153885 20874 2.7 21 8 1 5 27% 4876 69849 10891 31%
c i 39.11 28 145 0 38 14337 21 155097 21985 2.7 21 8 1 5 27% 4881 69849 10857 31%
c
c  seconds   switched      rate          size/glue tier1    binary         remaining
c         MB   reductions    conflicts         size  tier2     irredundant
c           level   restarts        redundant    glue   trail         variables
c
c i 39.18 28 143 0 38 14425 20 156368 23118 2.7 21 8 1 5 27% 4893 69849 10856 31%
c i 39.18 28 143 0 38 14425 20 156370 23116 2.7 21 8 1 5 27% 4894 69849 10854 31%
c i 39.18 28 143 0 38 14426 20 156518 23214 2.7 21 8 1 5 27% 4899 69849 10853 31%
c 2 39.23 28 142 0 38 14503 20 158076 24407 2.7 21 8 1 5 27% 4921 69849 10852 31%
c s 39.23 28 142 0 38 14503 20 158076 24407 2.7 21 8 1 5 27% 4923 69056 10852 31%
c e 39.33 28 142 0 38 14503 20 158076 24407 2.7 21 8 1 5 27% 2569 79970 9222 27%
c s 39.35 28 142 0 38 14503 20 158076 24407 2.7 21 8 1 5 27% 2569 79126 9222 27%
c e 39.37 28 142 0 38 14503 20 158076 24407 2.7 21 8 1 5 27% 2563 79234 9187 26%
c ^ 39.37 28 142 0 38 14503 20 158076 24407 2.7 21 8 1 5 27% 2563 79234 9187 26%
c i 39.37 28 142 0 38 14504 20 158164 15596 2.7 21 8 1 5 27% 2568 79234 9186 26%
c i 39.37 28 141 0 38 14504 20 158415 15776 2.7 21 8 1 5 27% 2570 79233 9172 26%
c i 39.38 28 141 0 38 14505 20 158496 15846 2.7 21 8 1 5 27% 2573 79231 9170 26%
c i 39.38 28 141 0 38 14505 20 158500 15846 2.7 21 8 1 5 27% 2574 79231 9167 26%
c } 39.38 28 141 0 38 14505 20 158502 15846 2.7 21 8 1 5 27% 2574 79231 9161 26%
c 0 39.38 28 141 0 38 14505 20 158502 15846 2.7 21 8 1 5 27% 2574 79231 9161 26%
c
c ---- [ result ] ------------------------------------------------------------
c
s UNSATISFIABLE
c
c ---- [ profiling ] ---------------------------------------------------------
c
c          27.98   71.07 %  search
c          27.98   71.07 %  focused
c          10.87   27.61 %  simplify
c          10.26   26.06 %  probe
c           4.09   10.38 %  sweep
c           4.05   10.28 %  vivify
c           0.90    2.29 %  eliminate
c           0.72    1.83 %  factor
c           0.66    1.68 %  congruence
c           0.54    1.36 %  substitute
c           0.44    1.13 %  preprocess
c           0.23    0.59 %  reduce
c           0.16    0.41 %  subsume
c           0.15    0.37 %  fastel
c           0.14    0.35 %  transitive
c           0.07    0.17 %  backbone
c           0.04    0.11 %  lucky
c           0.04    0.09 %  parse
c =============================================
c          39.38  100.00 %  total
c
c ---- [ statistics ] --------------------------------------------------------
c
c chronological:                         4263                3 %  conflicts
c conflicts:                           158502             4025.27 per second
c congruent:                             3677               11 %  variables
c decisions:                          3119825               19.68 per conflict
c eliminated:                           19120               55 %  variables
c factored:                              3612               10 %  variables
c fast_eliminated:                      11093               58 %  eliminated
c fast_strengthened:                       10                0 %  per strengthened
c fast_subsumed:                           65                0 %  per subsumed
c iterations:                              14                0 %  variables
c propagations:                     138815427          3525313    per second
c reductions:                              38             4171    interval
c reordered:                                5            31700    interval
c restarts:                             14505               11    interval
c strengthened:                          5157                0 %  checks
c substituted:                           9931               29 %  variables
c subsumed:                             14616                0 %  checks
c switched:                                 0                0    interval
c vivified:                             73863               13 %  checks
c
c ---- [ glue usage ] --------------------------------------------------------
c
c focused glue 1 used 225495 clauses 56.19% accumulated 56.19% tier1
c focused glue 2 used  88875 clauses 22.15% accumulated 78.34%
c focused glue 3 used  26361 clauses  6.57% accumulated 84.91%
c focused glue 4 used  15471 clauses  3.86% accumulated 88.76%
c focused glue 5 used  10016 clauses  2.50% accumulated 91.26% tier2
c
c ---- [ resources ] ---------------------------------------------------------
c
c maximum-resident-set-size:         29650944 bytes         28 MB
c process-time:                            39s              39.38 seconds
c
c ---- [ shutting down ] -----------------------------------------------------
c
c exit 20
